num_offers = 20;
num_halls = 10;
start=[5,11,1,27,43,29,5,47,31,32,16,3,24,47,37,46,33,37,11,4];
end=[86,32,94,85,78,83,82,78,82,41,60,76,59,56,90,89,95,68,77,55];
price=[3814,767,5926,909,2539,3831,2041,2566,3334,688,2495,6841,2184,532,3059,3516,4360,1218,2758,3478];
requirement=[548,872,646,930,509,329,428,422,262,746,720,824,212,976,776,962,297,652,974,662];
capacity=[738,856,976,976,340,641,796,792,799,467];
